! PBEh-3c grid5 TightSCF pal8

*xyzfile 1 1 input.xyz
